42673.1,30.61,33.71
42321.89,30.86,33.99
46930.94,27.83,30.65
41766.87,31.27,34.44
39139.52,33.37,36.75
44942.84,29.07,32.01
42182.01,30.97,34.1
41741.07,31.29,34.46
43572.86,29.98,33.01
47228.48,27.66,30.46
42543.1,30.7,33.81
41488.84,31.48,34.67
41631.54,31.38,34.55
40576.64,32.19,35.45
43223.58,30.22,33.28
43477.0,30.04,33.09
44245.61,29.52,32.51
42583.56,30.68,33.78
43135.39,30.28,33.35
42945.52,30.42,33.5
